p cnf 15 27
8 3 13 0
2 4 14 -9 0
-6 -4 0
-5 -3 -1 0
8 -6 12 13 0
-9 0
-4 -12 0
11 5 0
-15 0
-5 12 -11 -13 0
-4 -1 7 0
9 12 -11 7 0
11 12 -9 0
10 5 6 0
-3 -5 5 0
1 -5 -3 -1 0
-7 -11 13 0
3 -1 0
8 6 0
1 3 0
14 -2 0
-4 -12 5 0
-8 -7 -5 -3 0
-8 5 0
-3 12 13 7 0
9 -6 2 4 0
-9 15 0
